proyfinal/src/viki/013/andrea/andrea-localstore/experimentInOfficeAgust.take6/worker_4/ed617660-d7fd-4e48-8968-1591a81bc7a5.als.cnf.out
Reading from standard input... Use '--help' for help.
============================[ Problem Statistics ]=============================
|                                                                             |
|  Number of variables:         87638                                         |
|  Number of clauses:          161767                                         |
|  Parse time:                   0.04 s                                       |
|                                                                             |
============================[ Search Statistics ]==============================
| Conflicts |          ORIGINAL         |          LEARNT          | Progress |
|           |    Vars  Clauses Literals |    Limit  Clauses Lit/Cl |          |
===============================================================================
|       100 |   63203   108093   270303 |    39634       99     49 | 27.882 % |
|       250 |   63203   108093   270303 |    43597      249     70 | 27.882 % |
|       475 |   63195   108049   270213 |    47957      471     50 | 27.891 % |
|       812 |   63195   108017   270125 |    52752      757     70 | 27.891 % |
|      1318 |   63195   108017   270125 |    58028     1263     73 | 27.891 % |
|      2077 |   63177   107943   269954 |    63831     2019     84 | 27.912 % |
|      3216 |   63177   107943   269954 |    70214     3158     82 | 27.912 % |
|      4924 |   63177   107943   269954 |    77235     4866     86 | 27.911 % |
|      7486 |   63177   107943   269954 |    84959     7428     87 | 27.911 % |
===============================================================================
restarts              : 43
conflicts             : 9821           (6198 /sec)
decisions             : 36622          (0.00 % random) (23111 /sec)
propagations          : 15262708       (9631626 /sec)
conflict literals     : 829252         (53.41 % deleted)
Memory used           : 26.27 MB
CPU time              : 1.58465 s

UNSATISFIABLE
